\ENCODING=ISO-8859-1
\Problem name: ilog.cplex

Minimize
 obj1: 101664 x1 + 108542 x2 + 94424 x3 + 91973 x4 + 96114 x5 + 107968 x6
       + 95680 x7 + 106828 x8 + 95394 x9 + 91421 x10 + 91545 x11 + 91246 x12
       + 99739 x13 + 93433 x14 + 90781 x15 + 98827 x16 + 91413 x17 + 92139 x18
       + 98643 x19 + 95176 x20 + 90179 x21 + 101720 x22 + 105007 x23
       + 99481 x24 + 106174 x25 + 99706 x26 + 106530 x27 + 96980 x28
       + 101797 x29 + 101935 x30 + 103734 x31 + 97311 x32 + 99224 x33
       + 95032 x34 + 94282 x35 + 98611 x36 + 90836 x37 + 93929 x38 + 109632 x39
       + 92718 x40 + 106091 x41 + 90260 x42 + 93868 x43 + 92941 x44
       + 100277 x45 + 96389 x46 + 100683 x47 + 102599 x48 + 98105 x49
       + 109378 x50 + 107358 x51 + 109902 x52 + 108234 x53 + 99373 x54
       + 93003 x55 + 92719 x56 + 103605 x57 + 107698 x58 + 102421 x59
       + 105415 x60 + 99151 x61 + 109988 x62 + 92760 x63 + 96799 x64
       + 96926 x65 + 103566 x66 + 95935 x67 + 97839 x68 + 105119 x69
       + 91053 x70 + 94259 x71 + 107477 x72 + 94391 x73 + 101961 x74
       + 98070 x75 + 105064 x76 + 104575 x77 + 109090 x78 + 95561 x79
       + 105241 x80 + 100516 x81 + 103705 x82 + 105274 x83 + 103518 x84
       + 108822 x85 + 106175 x86 + 104397 x87 + 100334 x88 + 99109 x89
       + 98993 x90 + 93491 x91 + 104831 x92 + 97540 x93 + 104109 x94
       + 105293 x95 + 109904 x96 + 95350 x97 + 97162 x98 + 92953 x99
       + 106026 x100 + 100510 x101 + 97473 x102 + 101343 x103 + 102964 x104
       + 96812 x105 + 94529 x106 + 94007 x107 + 95678 x108 + 101390 x109
       + 109240 x110 + 97874 x111 + 103543 x112 + 109064 x113 + 101384 x114
       + 98022 x115 + 90496 x116 + 99859 x117 + 103396 x118 + 105605 x119
       + 97757 x120 + 90548 x121 + 93457 x122 + 94032 x123 + 105862 x124
       + 95481 x125 + 109548 x126 + 91365 x127 + 102052 x128 + 106317 x129
       + 105457 x130 + 95352 x131 + 105433 x132 + 102339 x133 + 95062 x134
       + 90270 x135 + 105573 x136 + 95796 x137 + 90085 x138 + 102056 x139
       + 93643 x140 + 102714 x141 + 90461 x142 + 99599 x143 + 107616 x144
       + 94831 x145 + 91428 x146 + 94548 x147 + 99226 x148 + 99470 x149
       + 93699 x150 + 101874 x151 + 91104 x152 + 108909 x153 + 97352 x154
       + 108420 x155 + 109568 x156 + 101104 x157 + 104938 x158 + 97351 x159
       + 96237 x160 + 99596 x161 + 94757 x162 + 92667 x163 + 99904 x164
       + 92021 x165 + 91417 x166 + 99830 x167 + 109068 x168 + 103824 x169
       + 97498 x170 + 106095 x171 + 105046 x172 + 106639 x173 + 97509 x174
       + 107263 x175 + 95776 x176 + 109238 x177 + 103312 x178 + 106356 x179
       + 91221 x180 + 102709 x181 + 93804 x182 + 101052 x183 + 91081 x184
       + 90591 x185 + 96780 x186 + 104211 x187 + 97283 x188 + 107281 x189
       + 102873 x190 + 94584 x191 + 95557 x192 + 106042 x193 + 100824 x194
       + 94331 x195 + 93010 x196 + 109798 x197 + 101913 x198 + 94664 x199
       + 96396 x200 + 98817 x201 + 101879 x202 + 90916 x203 + 105927 x204
       + 101285 x205 + 108112 x206 + 95114 x207 + 95661 x208 + 96566 x209
       + 109251 x210 + 95244 x211 + 98005 x212 + 107410 x213 + 109050 x214
       + 94645 x215 + 104893 x216 + 104395 x217 + 96683 x218 + 99849 x219
       + 108863 x220 + 93558 x221 + 101644 x222 + 90634 x223 + 93490 x224
       + 106502 x225 + 102948 x226 + 102217 x227 + 104566 x228 + 101157 x229
       + 109575 x230 + 96203 x231 + 90907 x232 + 90953 x233 + 101907 x234
       + 94318 x235 + 96829 x236 + 90315 x237 + 102392 x238 + 96907 x239
       + 97105 x240 + 109586 x241 + 108864 x242 + 104505 x243 + 108383 x244
       + 100728 x245 + 94936 x246 + 105895 x247 + 91645 x248 + 94877 x249
       + 92872 x250 + 107257 x251 + 101268 x252 + 109445 x253 + 103761 x254
       + 105965 x255 + 92206 x256 + 105012 x257 + 108711 x258 + 102294 x259
       + 104719 x260 + 101907 x261 + 96420 x262 + 96349 x263 + 94298 x264
       + 92945 x265 + 91760 x266 + 99426 x267 + 104875 x268 + 95796 x269
       + 93016 x270 + 107238 x271 + 97334 x272 + 97839 x273 + 101816 x274
       + 97183 x275 + 99573 x276 + 91382 x277 + 106870 x278 + 92144 x279
       + 109226 x280 + 97754 x281 + 100291 x282 + 99274 x283 + 95655 x284
       + 95082 x285 + 103580 x286 + 103810 x287 + 93922 x288 + 96419 x289
       + 99280 x290 + 95140 x291 + 100194 x292 + 92439 x293 + 103863 x294
       + 105217 x295 + 105403 x296 + 96041 x297 + 97572 x298 + 107830 x299
       + 178858 x300 + 19346 x301 + 21364 x302 + 18470 x303 + 21982 x304
       + 20614 x305 + 18786 x306 + 21174 x307 + 21048 x308 + 21095 x309
       + 19665 x310 + 21348 x311 + 21653 x312 + 19096 x313 + 20495 x314
       + 18031 x315 + 18791 x316 + 21892 x317 + 20162 x318 + 21124 x319
       + 19894 x320 + 19095 x321 + 19771 x322 + 20230 x323 + 19003 x324
       + 20356 x325 + 21930 x326 + 20766 x327 + 19730 x328 + 21888 x329
       + 19829 x330 + 18743 x331 + 20987 x332 + 19705 x333 + 20582 x334
       + 18696 x335 + 19781 x336 + 21268 x337 + 18792 x338 + 18742 x339
       + 21061 x340 + 21370 x341 + 21198 x342 + 20574 x343 + 19666 x344
       + 18644 x345 + 21504 x346 + 18428 x347 + 21873 x348 + 19988 x349
       + 20104 x350 + 19659 x351 + 19858 x352 + 19472 x353 + 20473 x354
       + 18527 x355 + 21561 x356 + 21955 x357 + 20293 x358 + 20162 x359
       + 7706 x360
Subject To
 c1:   x9 + x12 - x19 + x44 + x50  = 0
 c2:   x69 + x72 - x79 + x104 + x110  = 0
 c3:   x129 + x132 - x139 + x164 + x170  = 0
 c4:   x189 + x192 - x199 + x224 + x230  = 0
 c5:   x249 + x252 - x259 + x284 + x290  = 0
 c6:   x11 + x26 + x43 - x55 + x59  = 0
 c7:   x71 + x86 + x103 - x115 + x119  = 0
 c8:   x131 + x146 + x163 - x175 + x179  = 0
 c9:   x191 + x206 + x223 - x235 + x239  = 0
 c10:  x251 + x266 + x283 - x295 + x299  = 0
 c11:  x6 - x11 - x16 - x17 - x18 + x30 + x32 - x33 + x35 - x38 + x54  = -1
 c12:  x66 - x71 - x76 - x77 - x78 + x90 + x92 - x93 + x95 - x98 + x114  = 0
 c13:  x126 - x131 - x136 - x137 - x138 + x150 + x152 - x153 + x155 - x158
       + x174  = -1
 c14:  x186 - x191 - x196 - x197 - x198 + x210 + x212 - x213 + x215 - x218
       + x234  = 0
 c15:  x246 - x251 - x256 - x257 - x258 + x270 + x272 - x273 + x275 - x278
       + x294  = 0
 c16:  x19 - x21 + x25 - x26 + x33 - x37 + x39 + x46 - x51 - x54 - x57 + x58
        = 1
 c17:  x79 - x81 + x85 - x86 + x93 - x97 + x99 + x106 - x111 - x114 - x117
       + x118  = 0
 c18:  x139 - x141 + x145 - x146 + x153 - x157 + x159 + x166 - x171 - x174
       - x177 + x178  = 0
 c19:  x199 - x201 + x205 - x206 + x213 - x217 + x219 + x226 - x231 - x234
       - x237 + x238  = 0
 c20:  x259 - x261 + x265 - x266 + x273 - x277 + x279 + x286 - x291 - x294
       - x297 + x298  = 0
 c21:  x13 - x14 + x17 + x28 + x36 - x40 - x45 - x50  = 0
 c22:  x73 - x74 + x77 + x88 + x96 - x100 - x105 - x110  = 0
 c23:  x133 - x134 + x137 + x148 + x156 - x160 - x165 - x170  = 0
 c24:  x193 - x194 + x197 + x208 + x216 - x220 - x225 - x230  = 0
 c25:  x253 - x254 + x257 + x268 + x276 - x280 - x285 - x290  = 0
 c26:  x18 - x27 - x48 - x49 + x51 + x55 + x56  = 0
 c27:  x78 - x87 - x108 - x109 + x111 + x115 + x116  = -1
 c28:  x138 - x147 - x168 - x169 + x171 + x175 + x176  = 0
 c29:  x198 - x207 - x228 - x229 + x231 + x235 + x236  = 0
 c30:  x258 - x267 - x288 - x289 + x291 + x295 + x296  = 0
 c31:  - x1 - x4 - x10 + x15 + x34  = 0
 c32:  - x61 - x64 - x70 + x75 + x94  = 0
 c33:  - x121 - x124 - x130 + x135 + x154  = 0
 c34:  - x181 - x184 - x190 + x195 + x214  = 1
 c35:  - x241 - x244 - x250 + x255 + x274  = 0
 c36:  x2 - x8 - x12 + x20 + x21 + x24 - x30 - x39 - x42 + x49 - x59  = 0
 c37:  x62 - x68 - x72 + x80 + x81 + x84 - x90 - x99 - x102 + x109 - x119  = 0
 c38:  x122 - x128 - x132 + x140 + x141 + x144 - x150 - x159 - x162 + x169
       - x179  = 0
 c39:  x182 - x188 - x192 + x200 + x201 + x204 - x210 - x219 - x222 + x229
       - x239  = 0
 c40:  x242 - x248 - x252 + x260 + x261 + x264 - x270 - x279 - x282 + x289
       - x299  = 0
 c41:  x7 + x23 + x27 + x41 + x45 - x46 + x47  = 0
 c42:  x67 + x83 + x87 + x101 + x105 - x106 + x107  = 1
 c43:  x127 + x143 + x147 + x161 + x165 - x166 + x167  = 0
 c44:  x187 + x203 + x207 + x221 + x225 - x226 + x227  = 0
 c45:  x247 + x263 + x267 + x281 + x285 - x286 + x287  = 0
 c46:  x5 - x15 - x22 - x24 - x41 - x56 - x60  = 0
 c47:  x65 - x75 - x82 - x84 - x101 - x116 - x120  = 0
 c48:  x125 - x135 - x142 - x144 - x161 - x176 - x180  = 0
 c49:  x185 - x195 - x202 - x204 - x221 - x236 - x240  = 0
 c50:  x245 - x255 - x262 - x264 - x281 - x296 - x300  = 0
 c51:  - x3 - x6 + x16 - x20 + x22 - x31 + x52 + x53  = 0
 c52:  - x63 - x66 + x76 - x80 + x82 - x91 + x112 + x113  = 0
 c53:  - x123 - x126 + x136 - x140 + x142 - x151 + x172 + x173  = 0
 c54:  - x183 - x186 + x196 - x200 + x202 - x211 + x232 + x233  = -1
 c55:  - x243 - x246 + x256 - x260 + x262 - x271 + x292 + x293  = 0
 c56:  x1 - x23 - x25 - x36 + x37 + x40 + x42  = 0
 c57:  x61 - x83 - x85 - x96 + x97 + x100 + x102  = 0
 c58:  x121 - x143 - x145 - x156 + x157 + x160 + x162  = 1
 c59:  x181 - x203 - x205 - x216 + x217 + x220 + x222  = 0
 c60:  x241 - x263 - x265 - x276 + x277 + x280 + x282  = 0
 c61:  - x2 - x13 + x14 - x43 - x44 - x47 + x48 - x53 + x57  = 0
 c62:  - x62 - x73 + x74 - x103 - x104 - x107 + x108 - x113 + x117  = 0
 c63:  - x122 - x133 + x134 - x163 - x164 - x167 + x168 - x173 + x177  = 0
 c64:  - x182 - x193 + x194 - x223 - x224 - x227 + x228 - x233 + x237  = 0
 c65:  - x242 - x253 + x254 - x283 - x284 - x287 + x288 - x293 + x297  = -1
 c66:  - x5 + x8 - x9 + x10 - x28 + x29 + x31 - x34 - x35 - x52 - x58 + x60
        = 0
 c67:  - x65 + x68 - x69 + x70 - x88 + x89 + x91 - x94 - x95 - x112 - x118
       + x120  = 0
 c68:  - x125 + x128 - x129 + x130 - x148 + x149 + x151 - x154 - x155 - x172
       - x178 + x180  = 0
 c69:  - x185 + x188 - x189 + x190 - x208 + x209 + x211 - x214 - x215 - x232
       - x238 + x240  = 0
 c70:  - x245 + x248 - x249 + x250 - x268 + x269 + x271 - x274 - x275 - x292
       - x298 + x300  = 1
 c71:  x3 + x4 - x7 - x29 - x32 + x38  = 0
 c72:  x63 + x64 - x67 - x89 - x92 + x98  = 0
 c73:  x123 + x124 - x127 - x149 - x152 + x158  = 0
 c74:  x183 + x184 - x187 - x209 - x212 + x218  = 0
 c75:  x243 + x244 - x247 - x269 - x272 + x278  = 0
 c76:  4 x1 + 4 x61 + 4 x121 + 4 x181 + 4 x241 - 11 x301 <= 0
 c77:  4 x2 + 4 x62 + 4 x122 + 4 x182 + 4 x242 - 10 x302 <= 0
 c78:  4 x3 + 4 x63 + 4 x123 + 4 x183 + 4 x243 - 10 x303 <= 0
 c79:  4 x4 + 4 x64 + 4 x124 + 4 x184 + 4 x244 - 10 x304 <= 0
 c80:  4 x5 + 4 x65 + 4 x125 + 4 x185 + 4 x245 - 10 x305 <= 0
 c81:  4 x6 + 4 x66 + 4 x126 + 4 x186 + 4 x246 - 10 x306 <= 0
 c82:  4 x7 + 4 x67 + 4 x127 + 4 x187 + 4 x247 - 9 x307 <= 0
 c83:  4 x8 + 4 x68 + 4 x128 + 4 x188 + 4 x248 - 10 x308 <= 0
 c84:  4 x9 + 4 x69 + 4 x129 + 4 x189 + 4 x249 - 10 x309 <= 0
 c85:  4 x10 + 4 x70 + 4 x130 + 4 x190 + 4 x250 - 10 x310 <= 0
 c86:  4 x11 + 4 x71 + 4 x131 + 4 x191 + 4 x251 - 9 x311 <= 0
 c87:  4 x12 + 4 x72 + 4 x132 + 4 x192 + 4 x252 - 11 x312 <= 0
 c88:  4 x13 + 4 x73 + 4 x133 + 4 x193 + 4 x253 - 10 x313 <= 0
 c89:  4 x14 + 4 x74 + 4 x134 + 4 x194 + 4 x254 - 9 x314 <= 0
 c90:  4 x15 + 4 x75 + 4 x135 + 4 x195 + 4 x255 - 11 x315 <= 0
 c91:  4 x16 + 4 x76 + 4 x136 + 4 x196 + 4 x256 - 11 x316 <= 0
 c92:  4 x17 + 4 x77 + 4 x137 + 4 x197 + 4 x257 - 9 x317 <= 0
 c93:  4 x18 + 4 x78 + 4 x138 + 4 x198 + 4 x258 - 10 x318 <= 0
 c94:  4 x19 + 4 x79 + 4 x139 + 4 x199 + 4 x259 - 10 x319 <= 0
 c95:  4 x20 + 4 x80 + 4 x140 + 4 x200 + 4 x260 - 10 x320 <= 0
 c96:  4 x21 + 4 x81 + 4 x141 + 4 x201 + 4 x261 - 10 x321 <= 0
 c97:  4 x22 + 4 x82 + 4 x142 + 4 x202 + 4 x262 - 9 x322 <= 0
 c98:  4 x23 + 4 x83 + 4 x143 + 4 x203 + 4 x263 - 10 x323 <= 0
 c99:  4 x24 + 4 x84 + 4 x144 + 4 x204 + 4 x264 - 10 x324 <= 0
 c100: 4 x25 + 4 x85 + 4 x145 + 4 x205 + 4 x265 - 9 x325 <= 0
 c101: 4 x26 + 4 x86 + 4 x146 + 4 x206 + 4 x266 - 11 x326 <= 0
 c102: 4 x27 + 4 x87 + 4 x147 + 4 x207 + 4 x267 - 9 x327 <= 0
 c103: 4 x28 + 4 x88 + 4 x148 + 4 x208 + 4 x268 - 10 x328 <= 0
 c104: 4 x29 + 4 x89 + 4 x149 + 4 x209 + 4 x269 - 9 x329 <= 0
 c105: 4 x30 + 4 x90 + 4 x150 + 4 x210 + 4 x270 - 9 x330 <= 0
 c106: 4 x31 + 4 x91 + 4 x151 + 4 x211 + 4 x271 - 10 x331 <= 0
 c107: 4 x32 + 4 x92 + 4 x152 + 4 x212 + 4 x272 - 11 x332 <= 0
 c108: 4 x33 + 4 x93 + 4 x153 + 4 x213 + 4 x273 - 11 x333 <= 0
 c109: 4 x34 + 4 x94 + 4 x154 + 4 x214 + 4 x274 - 11 x334 <= 0
 c110: 4 x35 + 4 x95 + 4 x155 + 4 x215 + 4 x275 - 10 x335 <= 0
 c111: 4 x36 + 4 x96 + 4 x156 + 4 x216 + 4 x276 - 11 x336 <= 0
 c112: 4 x37 + 4 x97 + 4 x157 + 4 x217 + 4 x277 - 10 x337 <= 0
 c113: 4 x38 + 4 x98 + 4 x158 + 4 x218 + 4 x278 - 11 x338 <= 0
 c114: 4 x39 + 4 x99 + 4 x159 + 4 x219 + 4 x279 - 11 x339 <= 0
 c115: 4 x40 + 4 x100 + 4 x160 + 4 x220 + 4 x280 - 10 x340 <= 0
 c116: 4 x41 + 4 x101 + 4 x161 + 4 x221 + 4 x281 - 10 x341 <= 0
 c117: 4 x42 + 4 x102 + 4 x162 + 4 x222 + 4 x282 - 9 x342 <= 0
 c118: 4 x43 + 4 x103 + 4 x163 + 4 x223 + 4 x283 - 10 x343 <= 0
 c119: 4 x44 + 4 x104 + 4 x164 + 4 x224 + 4 x284 - 10 x344 <= 0
 c120: 4 x45 + 4 x105 + 4 x165 + 4 x225 + 4 x285 - 10 x345 <= 0
 c121: 4 x46 + 4 x106 + 4 x166 + 4 x226 + 4 x286 - 11 x346 <= 0
 c122: 4 x47 + 4 x107 + 4 x167 + 4 x227 + 4 x287 - 11 x347 <= 0
 c123: 4 x48 + 4 x108 + 4 x168 + 4 x228 + 4 x288 - 9 x348 <= 0
 c124: 4 x49 + 4 x109 + 4 x169 + 4 x229 + 4 x289 - 10 x349 <= 0
 c125: 4 x50 + 4 x110 + 4 x170 + 4 x230 + 4 x290 - 9 x350 <= 0
 c126: 4 x51 + 4 x111 + 4 x171 + 4 x231 + 4 x291 - 10 x351 <= 0
 c127: 4 x52 + 4 x112 + 4 x172 + 4 x232 + 4 x292 - 11 x352 <= 0
 c128: 4 x53 + 4 x113 + 4 x173 + 4 x233 + 4 x293 - 9 x353 <= 0
 c129: 4 x54 + 4 x114 + 4 x174 + 4 x234 + 4 x294 - 10 x354 <= 0
 c130: 4 x55 + 4 x115 + 4 x175 + 4 x235 + 4 x295 - 9 x355 <= 0
 c131: 4 x56 + 4 x116 + 4 x176 + 4 x236 + 4 x296 - 11 x356 <= 0
 c132: 4 x57 + 4 x117 + 4 x177 + 4 x237 + 4 x297 - 9 x357 <= 0
 c133: 4 x58 + 4 x118 + 4 x178 + 4 x238 + 4 x298 - 10 x358 <= 0
 c134: 4 x59 + 4 x119 + 4 x179 + 4 x239 + 4 x299 - 9 x359 <= 0
 c135: 4 x60 + 4 x120 + 4 x180 + 4 x240 + 4 x300 - 11 x360 <= 0
Bounds
 0 <= x1 <= 1
 0 <= x2 <= 1
 0 <= x3 <= 1
 0 <= x4 <= 1
 0 <= x5 <= 1
 0 <= x6 <= 1
 0 <= x7 <= 1
 0 <= x8 <= 1
 0 <= x9 <= 1
 0 <= x10 <= 1
 0 <= x11 <= 1
 0 <= x12 <= 1
 0 <= x13 <= 1
 0 <= x14 <= 1
 0 <= x15 <= 1
 0 <= x16 <= 1
 0 <= x17 <= 1
 0 <= x18 <= 1
 0 <= x19 <= 1
 0 <= x20 <= 1
 0 <= x21 <= 1
 0 <= x22 <= 1
 0 <= x23 <= 1
 0 <= x24 <= 1
 0 <= x25 <= 1
 0 <= x26 <= 1
 0 <= x27 <= 1
 0 <= x28 <= 1
 0 <= x29 <= 1
 0 <= x30 <= 1
 0 <= x31 <= 1
 0 <= x32 <= 1
 0 <= x33 <= 1
 0 <= x34 <= 1
 0 <= x35 <= 1
 0 <= x36 <= 1
 0 <= x37 <= 1
 0 <= x38 <= 1
 0 <= x39 <= 1
 0 <= x40 <= 1
 0 <= x41 <= 1
 0 <= x42 <= 1
 0 <= x43 <= 1
 0 <= x44 <= 1
 0 <= x45 <= 1
 0 <= x46 <= 1
 0 <= x47 <= 1
 0 <= x48 <= 1
 0 <= x49 <= 1
 0 <= x50 <= 1
 0 <= x51 <= 1
 0 <= x52 <= 1
 0 <= x53 <= 1
 0 <= x54 <= 1
 0 <= x55 <= 1
 0 <= x56 <= 1
 0 <= x57 <= 1
 0 <= x58 <= 1
 0 <= x59 <= 1
 0 <= x60 <= 1
 0 <= x61 <= 1
 0 <= x62 <= 1
 0 <= x63 <= 1
 0 <= x64 <= 1
 0 <= x65 <= 1
 0 <= x66 <= 1
 0 <= x67 <= 1
 0 <= x68 <= 1
 0 <= x69 <= 1
 0 <= x70 <= 1
 0 <= x71 <= 1
 0 <= x72 <= 1
 0 <= x73 <= 1
 0 <= x74 <= 1
 0 <= x75 <= 1
 0 <= x76 <= 1
 0 <= x77 <= 1
 0 <= x78 <= 1
 0 <= x79 <= 1
 0 <= x80 <= 1
 0 <= x81 <= 1
 0 <= x82 <= 1
 0 <= x83 <= 1
 0 <= x84 <= 1
 0 <= x85 <= 1
 0 <= x86 <= 1
 0 <= x87 <= 1
 0 <= x88 <= 1
 0 <= x89 <= 1
 0 <= x90 <= 1
 0 <= x91 <= 1
 0 <= x92 <= 1
 0 <= x93 <= 1
 0 <= x94 <= 1
 0 <= x95 <= 1
 0 <= x96 <= 1
 0 <= x97 <= 1
 0 <= x98 <= 1
 0 <= x99 <= 1
 0 <= x100 <= 1
 0 <= x101 <= 1
 0 <= x102 <= 1
 0 <= x103 <= 1
 0 <= x104 <= 1
 0 <= x105 <= 1
 0 <= x106 <= 1
 0 <= x107 <= 1
 0 <= x108 <= 1
 0 <= x109 <= 1
 0 <= x110 <= 1
 0 <= x111 <= 1
 0 <= x112 <= 1
 0 <= x113 <= 1
 0 <= x114 <= 1
 0 <= x115 <= 1
 0 <= x116 <= 1
 0 <= x117 <= 1
 0 <= x118 <= 1
 0 <= x119 <= 1
 0 <= x120 <= 1
 0 <= x121 <= 1
 0 <= x122 <= 1
 0 <= x123 <= 1
 0 <= x124 <= 1
 0 <= x125 <= 1
 0 <= x126 <= 1
 0 <= x127 <= 1
 0 <= x128 <= 1
 0 <= x129 <= 1
 0 <= x130 <= 1
 0 <= x131 <= 1
 0 <= x132 <= 1
 0 <= x133 <= 1
 0 <= x134 <= 1
 0 <= x135 <= 1
 0 <= x136 <= 1
 0 <= x137 <= 1
 0 <= x138 <= 1
 0 <= x139 <= 1
 0 <= x140 <= 1
 0 <= x141 <= 1
 0 <= x142 <= 1
 0 <= x143 <= 1
 0 <= x144 <= 1
 0 <= x145 <= 1
 0 <= x146 <= 1
 0 <= x147 <= 1
 0 <= x148 <= 1
 0 <= x149 <= 1
 0 <= x150 <= 1
 0 <= x151 <= 1
 0 <= x152 <= 1
 0 <= x153 <= 1
 0 <= x154 <= 1
 0 <= x155 <= 1
 0 <= x156 <= 1
 0 <= x157 <= 1
 0 <= x158 <= 1
 0 <= x159 <= 1
 0 <= x160 <= 1
 0 <= x161 <= 1
 0 <= x162 <= 1
 0 <= x163 <= 1
 0 <= x164 <= 1
 0 <= x165 <= 1
 0 <= x166 <= 1
 0 <= x167 <= 1
 0 <= x168 <= 1
 0 <= x169 <= 1
 0 <= x170 <= 1
 0 <= x171 <= 1
 0 <= x172 <= 1
 0 <= x173 <= 1
 0 <= x174 <= 1
 0 <= x175 <= 1
 0 <= x176 <= 1
 0 <= x177 <= 1
 0 <= x178 <= 1
 0 <= x179 <= 1
 0 <= x180 <= 1
 0 <= x181 <= 1
 0 <= x182 <= 1
 0 <= x183 <= 1
 0 <= x184 <= 1
 0 <= x185 <= 1
 0 <= x186 <= 1
 0 <= x187 <= 1
 0 <= x188 <= 1
 0 <= x189 <= 1
 0 <= x190 <= 1
 0 <= x191 <= 1
 0 <= x192 <= 1
 0 <= x193 <= 1
 0 <= x194 <= 1
 0 <= x195 <= 1
 0 <= x196 <= 1
 0 <= x197 <= 1
 0 <= x198 <= 1
 0 <= x199 <= 1
 0 <= x200 <= 1
 0 <= x201 <= 1
 0 <= x202 <= 1
 0 <= x203 <= 1
 0 <= x204 <= 1
 0 <= x205 <= 1
 0 <= x206 <= 1
 0 <= x207 <= 1
 0 <= x208 <= 1
 0 <= x209 <= 1
 0 <= x210 <= 1
 0 <= x211 <= 1
 0 <= x212 <= 1
 0 <= x213 <= 1
 0 <= x214 <= 1
 0 <= x215 <= 1
 0 <= x216 <= 1
 0 <= x217 <= 1
 0 <= x218 <= 1
 0 <= x219 <= 1
 0 <= x220 <= 1
 0 <= x221 <= 1
 0 <= x222 <= 1
 0 <= x223 <= 1
 0 <= x224 <= 1
 0 <= x225 <= 1
 0 <= x226 <= 1
 0 <= x227 <= 1
 0 <= x228 <= 1
 0 <= x229 <= 1
 0 <= x230 <= 1
 0 <= x231 <= 1
 0 <= x232 <= 1
 0 <= x233 <= 1
 0 <= x234 <= 1
 0 <= x235 <= 1
 0 <= x236 <= 1
 0 <= x237 <= 1
 0 <= x238 <= 1
 0 <= x239 <= 1
 0 <= x240 <= 1
 0 <= x241 <= 1
 0 <= x242 <= 1
 0 <= x243 <= 1
 0 <= x244 <= 1
 0 <= x245 <= 1
 0 <= x246 <= 1
 0 <= x247 <= 1
 0 <= x248 <= 1
 0 <= x249 <= 1
 0 <= x250 <= 1
 0 <= x251 <= 1
 0 <= x252 <= 1
 0 <= x253 <= 1
 0 <= x254 <= 1
 0 <= x255 <= 1
 0 <= x256 <= 1
 0 <= x257 <= 1
 0 <= x258 <= 1
 0 <= x259 <= 1
 0 <= x260 <= 1
 0 <= x261 <= 1
 0 <= x262 <= 1
 0 <= x263 <= 1
 0 <= x264 <= 1
 0 <= x265 <= 1
 0 <= x266 <= 1
 0 <= x267 <= 1
 0 <= x268 <= 1
 0 <= x269 <= 1
 0 <= x270 <= 1
 0 <= x271 <= 1
 0 <= x272 <= 1
 0 <= x273 <= 1
 0 <= x274 <= 1
 0 <= x275 <= 1
 0 <= x276 <= 1
 0 <= x277 <= 1
 0 <= x278 <= 1
 0 <= x279 <= 1
 0 <= x280 <= 1
 0 <= x281 <= 1
 0 <= x282 <= 1
 0 <= x283 <= 1
 0 <= x284 <= 1
 0 <= x285 <= 1
 0 <= x286 <= 1
 0 <= x287 <= 1
 0 <= x288 <= 1
 0 <= x289 <= 1
 0 <= x290 <= 1
 0 <= x291 <= 1
 0 <= x292 <= 1
 0 <= x293 <= 1
 0 <= x294 <= 1
 0 <= x295 <= 1
 0 <= x296 <= 1
 0 <= x297 <= 1
 0 <= x298 <= 1
 0 <= x299 <= 1
 0 <= x300 <= 1
 0 <= x301 <= 1
 0 <= x302 <= 1
 0 <= x303 <= 1
 0 <= x304 <= 1
 0 <= x305 <= 1
 0 <= x306 <= 1
 0 <= x307 <= 1
 0 <= x308 <= 1
 0 <= x309 <= 1
 0 <= x310 <= 1
 0 <= x311 <= 1
 0 <= x312 <= 1
 0 <= x313 <= 1
 0 <= x314 <= 1
 0 <= x315 <= 1
 0 <= x316 <= 1
 0 <= x317 <= 1
 0 <= x318 <= 1
 0 <= x319 <= 1
 0 <= x320 <= 1
 0 <= x321 <= 1
 0 <= x322 <= 1
 0 <= x323 <= 1
 0 <= x324 <= 1
 0 <= x325 <= 1
 0 <= x326 <= 1
 0 <= x327 <= 1
 0 <= x328 <= 1
 0 <= x329 <= 1
 0 <= x330 <= 1
 0 <= x331 <= 1
 0 <= x332 <= 1
 0 <= x333 <= 1
 0 <= x334 <= 1
 0 <= x335 <= 1
 0 <= x336 <= 1
 0 <= x337 <= 1
 0 <= x338 <= 1
 0 <= x339 <= 1
 0 <= x340 <= 1
 0 <= x341 <= 1
 0 <= x342 <= 1
 0 <= x343 <= 1
 0 <= x344 <= 1
 0 <= x345 <= 1
 0 <= x346 <= 1
 0 <= x347 <= 1
 0 <= x348 <= 1
 0 <= x349 <= 1
 0 <= x350 <= 1
 0 <= x351 <= 1
 0 <= x352 <= 1
 0 <= x353 <= 1
 0 <= x354 <= 1
 0 <= x355 <= 1
 0 <= x356 <= 1
 0 <= x357 <= 1
 0 <= x358 <= 1
 0 <= x359 <= 1
 0 <= x360 <= 1
Binaries
 x301  x302  x303  x304  x305  x306  x307  x308  x309  x310  x311  x312  x313 
 x314  x315  x316  x317  x318  x319  x320  x321  x322  x323  x324  x325  x326 
 x327  x328  x329  x330  x331  x332  x333  x334  x335  x336  x337  x338  x339 
 x340  x341  x342  x343  x344  x345  x346  x347  x348  x349  x350  x351  x352 
 x353  x354  x355  x356  x357  x358  x359  x360 
End
